Copyright (C) 2013-2015, Filipe Brandao
Build (method = -2)
  #dp: 8513
  Step-3' Graph: 154 vertices and 3083 arcs (0.01s)
  Step-4' Graph: 130 vertices and 3035 arcs (0.01s)
  #V4/#V3 = 0.84
  #A4/#A3 = 0.98
Ready! (0.01s)
Optimize a model with 255 rows, 3036 columns and 8855 nonzeros
Found heuristic solution: objective 167
Presolve removed 64 rows and 75 columns
Presolve time: 0.02s
Presolved: 191 rows, 2961 columns, 8429 nonzeros
Variable types: 0 continuous, 2961 integer (1784 binary)
Optimize a model with 191 rows, 2961 columns and 8429 nonzeros
Presolved: 191 rows, 2961 columns, 8429 nonzeros

Root barrier log...

Ordering time: 0.00s

Barrier statistics:
 AA' NZ     : 4.539e+03
 Factor NZ  : 9.406e+03 (roughly 1 MByte of memory)
 Factor Ops : 6.406e+05 (less than 1 second per iteration)
 Threads    : 1

                  Objective                Residual
Iter       Primal          Dual         Primal    Dual     Compl     Time
   0   4.50579113e+03 -1.75168025e+04  3.52e+04 1.99e-01  2.60e+01     0s
   1   1.02324830e+03 -3.81249041e+03  4.00e+03 6.66e-16  3.24e+00     0s
   2   2.77238191e+02 -1.09047107e+03  3.33e+02 9.33e-04  4.07e-01     0s
   3   1.56921632e+02 -9.32894888e+01  2.67e+01 2.14e-15  5.27e-02     0s
   4   1.28188789e+02  5.07644242e+01  1.23e+01 1.67e-15  1.65e-02     0s
   5   1.18044180e+02  6.38220151e+01  5.61e+00 2.43e-15  1.06e-02     0s
   6   1.10918775e+02  7.40507464e+01  3.43e+00 2.78e-15  7.01e-03     0s
   7   1.02095542e+02  8.27885074e+01  1.35e+00 2.49e-15  3.54e-03     0s
   8   9.90664651e+01  9.17397716e+01  4.18e-01 2.04e-15  1.31e-03     0s
   9   9.82048991e+01  9.55722331e+01  1.78e-01 2.23e-15  4.68e-04     0s
  10   9.76862094e+01  9.71688357e+01  2.92e-02 1.76e-15  8.99e-05     0s
  11   9.75525175e+01  9.73795919e+01  7.35e-03 2.55e-15  2.98e-05     0s
  12   9.75028229e+01  9.74969974e+01  2.46e-04 2.40e-15  1.00e-06     0s
  13   9.75000003e+01  9.74999989e+01  3.32e-08 1.60e-15  2.43e-10     0s
  14   9.75000000e+01  9.75000000e+01  5.24e-12 2.80e-15  2.44e-16     0s

Barrier solved model in 14 iterations and 0.02 seconds
Optimal objective 9.75000000e+01


Root relaxation: objective 9.750000e+01, 1064 iterations, 0.02 seconds

    Nodes    |    Current Node    |     Objective Bounds      |     Work
 Expl Unexpl |  Obj  Depth IntInf | Incumbent    BestBd   Gap | It/Node Time

     0     0   97.50000    0   19  167.00000   97.50000  41.6%     -    0s
H    0     0                      98.0000000   97.50000  0.51%     -    0s

Explored 0 nodes (1198 simplex iterations) in 0.06 seconds
Thread count was 1 (of 4 available processors)

Optimal solution found (tolerance 0.00e+00)
Best objective 9.800000000000e+01, best bound 9.800000000000e+01, gap 0.0%
Preprocessing time: 0.01 seconds
Gurobi run time: 0.06 seconds
Total run time: 0.07 seconds
Objective: 98
Solution:
1 x [i=1, i=124]
1 x [i=2, i=123]
1 x [i=3, i=121]
1 x [i=4, i=119]
1 x [i=5, i=118]
3 x [i=6, i=117]
2 x [i=7, i=114]
2 x [i=8, i=113]
1 x [i=9, i=115]
1 x [i=10, i=116]
1 x [i=11, i=108]
1 x [i=12, i=107]
2 x [i=13, i=110]
1 x [i=14, i=104]
1 x [i=14, i=105]
3 x [i=15, i=120]
3 x [i=16, i=103]
1 x [i=16, i=106]
2 x [i=17, i=101]
1 x [i=18, i=100]
1 x [i=18, i=102]
1 x [i=18, i=109]
1 x [i=19, i=99]
1 x [i=20, i=96]
1 x [i=21, i=94]
1 x [i=22, i=95]
3 x [i=23, i=93]
1 x [i=24, i=98]
1 x [i=25, i=99]
1 x [i=26]
2 x [i=27, i=91]
1 x [i=28, i=89]
2 x [i=29, i=94]
2 x [i=30, i=99]
1 x [i=31, i=85]
1 x [i=31, i=86]
1 x [i=32, i=87]
1 x [i=33, i=83]
3 x [i=34, i=88]
1 x [i=35, i=81]
1 x [i=36, i=82]
1 x [i=37, i=79]
2 x [i=37, i=80]
1 x [i=38, i=90]
2 x [i=39, i=84]
1 x [i=40, i=125, i=125]
1 x [i=41, i=77]
1 x [i=41, i=97]
2 x [i=42, i=76]
2 x [i=43, i=74]
2 x [i=44, i=73]
1 x [i=45, i=75]
1 x [i=46, i=71]
1 x [i=46, i=72]
1 x [i=47, i=70]
1 x [i=48, i=92]
1 x [i=49, i=71]
1 x [i=50, i=78]
2 x [i=51, i=67]
1 x [i=52, i=74]
2 x [i=53, i=68]
2 x [i=54, i=65]
1 x [i=54, i=69]
2 x [i=55, i=111, i=125]
1 x [i=56, i=66]
1 x [i=57, i=64]
1 x [i=57, i=75]
1 x [i=58, i=112, i=122]
1 x [i=59, i=112]
1 x [i=60, i=63]
1 x [i=61, i=62]
1 x [i=99, i=99, i=99]
